! b3lyp d3bj def2-svp Freq Opt tightscf cpcm(CH2Cl2)
%pal
    nprocs 1
end
%MaxCore 1000
%freq
    Temp    298.15
end

*xyz 0 1
C    -0.242400  -0.772000   0.003000
H    -0.105500  -1.843300   0.002800
C     0.864100   0.070300   0.000700
N    -1.395400  -0.289200   0.000300
N    -2.432100   0.144900  -0.002200
C     2.254200  -0.511800  -0.002200
O     0.710000   1.276700   0.001000
H     2.587100  -0.652200  -1.030600
H     2.934100   0.168800   0.510200
H     2.246600  -1.473000   0.511600
*





