! b3lyp d3bj def2-svp Freq Opt tightscf cpcm(CH2Cl2)
%pal
    nprocs 1
end
%MaxCore 1000
%freq
    Temp    298.15
end

*xyz 0 1
C     0.934866  -0.645835  -0.118781
C    -0.312224   0.126756   0.008735
N     0.822161  -1.933417  -0.330475
O    -1.377214  -0.695565  -0.080738
O    -0.366061   1.325005   0.170151
C    -2.653190  -0.072377   0.149355
N     0.739339  -3.101242  -0.407590
H     1.887263  -0.172392   0.059483
H    -3.386502  -0.863239   0.043969
H    -2.693616   0.355296   1.147760
H    -2.831051   0.712699  -0.581033
*




