! B3LYP tightscf Freq Opt 6-31G* CPCM(CycloHexane)
%pal
    nprocs 1
end
%MaxCore 1000
%freq
    Temp    298.15
end

*xyz 0 1
C     0.916410  -0.667518  -0.097726
C    -0.320523   0.087088   0.064176
N     0.884865  -1.960428  -0.291398
O    -1.411566  -0.700249  -0.006984
O    -0.360069   1.288195   0.242681
C    -2.677559  -0.049867   0.141975
N     0.845884  -3.079257  -0.459404
H     1.894938  -0.189320  -0.066503
H    -2.753811   0.432689   1.128218
H    -2.819493   0.711219  -0.640200
C    -3.727777  -1.140623   0.008959
H    -4.743486  -0.703300   0.111352
H    -3.582235  -1.905490   0.800905
H    -3.643216  -1.629003  -0.984890
*


