!opt freq b3lyp d3bj DEF2-SVP
%pal nprocs 4 end
%maxcore 2000

* xyz 0 1
O   0.0000   0.0000   0.0626
H  -0.7920   0.0000  -0.4973
H   0.7920   0.0000  -0.4973
*
